NAME : problems/40-tsp/instance-42.tsp
COMMENT : No Comment
TYPE : TSP
DIMENSION: 40
EDGE_WEIGHT_TYPE : EUC_2D
NODE_COORD_SECTION
1 825 4036 
2 5107 2205 
3 5949 574 
4 5323 3510 
5 7618 8963 
6 5742 8149 
7 8044 9328 
8 2084 1027 
9 3968 4995 
10 6913 7841 
11 4799 5375 
12 5470 8564 
13 8194 6686 
14 3545 2809 
15 1115 1779 
16 8482 4087 
17 7211 663 
18 8259 9373 
19 1348 1173 
20 1029 1377 
21 958 8015 
22 8556 366 
23 6705 3017 
24 493 2768 
25 6646 6021 
26 4202 3726 
27 590 4782 
28 6395 9608 
29 5599 3797 
30 7855 9552 
31 1765 5085 
32 4325 6910 
33 7358 1141 
34 6083 9005 
35 4582 5835 
36 4387 938 
37 2973 9482 
38 6102 1352 
39 7650 1956 
40 8085 2712 
EOF
